<?xml version="1.0"?>
<VTKFile type="UnstructuredGrid" version="0.1" byte_order="LittleEndian">
	<UnstructuredGrid>
		<Piece NumberOfPoints="2" NumberOfCells="1">
			<Points>
				<DataArray type="Float32" NumberOfComponents="3" format="ascii">
					2.50000000e-03 2.50000000e-03 0.00000000e+00
					2.50000000e-03 2.50000000e-03 5.00000000e-03
				</DataArray>
			</Points>
			<Cells>
				<DataArray type="Int32" Name="connectivity" format="ascii">
					0	1	

				</DataArray>
				<DataArray type="Int32" Name="offsets" format="ascii">
					2
				</DataArray>
				<DataArray type="UInt8" Name="types" format="ascii">
					3
				</DataArray>
			</Cells>
			<PointData>
				<DataArray type="Float32" Name="Displacement" NumberOfComponents="3" ComponentName0="X" ComponentName1="Y" ComponentName2="Z" format="ascii">
					0.0000000000e+00 0.0000000000e+00 0.0000000000e+00 
					-5.5415900099e-04 0.0000000000e+00 0.0000000000e+00 
				</DataArray>
			</PointData>
			<CellData>
				<DataArray type="Float32" Name="Stress (Cauchy)" NumberOfComponents="9" ComponentName0="XX" ComponentName1="XY" ComponentName2="XZ" ComponentName3="YX" ComponentName4="YY" ComponentName5="YZ" ComponentName6="ZX" ComponentName7="ZY" ComponentName8="ZZ" format="ascii">
					1.7976896899e+04 -1.5428734216e-14 3.0061466886e-14
					-1.5428734216e-14 1.7976896899e+04 -3.0061466886e-14
					3.0061466886e-14 -3.0061466886e-14 2.1132145388e+04
				</DataArray>
				<DataArray type="Float32" Name="Strain (Logarithmic)" NumberOfComponents="9" ComponentName0="XX" ComponentName1="XY" ComponentName2="XZ" ComponentName3="YX" ComponentName4="YY" ComponentName5="YZ" ComponentName6="ZX" ComponentName7="ZY" ComponentName8="ZZ" format="ascii">
					-1.1746886024e-01 0.0000000000e+00 0.0000000000e+00
					0.0000000000e+00 -1.1746886024e-01 0.0000000000e+00
					0.0000000000e+00 0.0000000000e+00 2.8141245944e-01
				</DataArray>
			</CellData>
		</Piece>
	</UnstructuredGrid>
</VTKFile>
