<?xml version="1.0"?>
<VTKFile type="UnstructuredGrid" version="0.1" byte_order="LittleEndian">
	<UnstructuredGrid>
		<Piece NumberOfPoints="2" NumberOfCells="1">
			<Points>
				<DataArray type="Float32" NumberOfComponents="3" format="ascii">
					2.50000000e-03 2.50000000e-03 0.00000000e+00
					2.50000000e-03 2.50000000e-03 5.00000000e-03
				</DataArray>
			</Points>
			<Cells>
				<DataArray type="Int32" Name="connectivity" format="ascii">
					0	1	

				</DataArray>
				<DataArray type="Int32" Name="offsets" format="ascii">
					2
				</DataArray>
				<DataArray type="UInt8" Name="types" format="ascii">
					3
				</DataArray>
			</Cells>
			<PointData>
				<DataArray type="Float32" Name="Displacement" NumberOfComponents="3" ComponentName0="X" ComponentName1="Y" ComponentName2="Z" format="ascii">
					0.0000000000e+00 0.0000000000e+00 0.0000000000e+00 
					-2.6081247528e-05 0.0000000000e+00 0.0000000000e+00 
				</DataArray>
			</PointData>
			<CellData>
				<DataArray type="Float32" Name="Stress (Cauchy)" NumberOfComponents="9" ComponentName0="XX" ComponentName1="XY" ComponentName2="XZ" ComponentName3="YX" ComponentName4="YY" ComponentName5="YZ" ComponentName6="ZX" ComponentName7="ZY" ComponentName8="ZZ" format="ascii">
					1.5687813367e+04 3.3571032764e-15 8.3886061832e-16
					3.3571032764e-15 1.5687813367e+04 -3.5906296506e-34
					8.3886061832e-16 -3.5906296506e-34 1.6107465005e+04
				</DataArray>
				<DataArray type="Float32" Name="Strain (Logarithmic)" NumberOfComponents="9" ComponentName0="XX" ComponentName1="XY" ComponentName2="XZ" ComponentName3="YX" ComponentName4="YY" ComponentName5="YZ" ComponentName6="ZX" ComponentName7="ZY" ComponentName8="ZZ" format="ascii">
					-5.2299016310e-03 0.0000000000e+00 0.0000000000e+00
					0.0000000000e+00 -5.2299016310e-03 0.0000000000e+00
					0.0000000000e+00 0.0000000000e+00 4.9266241303e-02
				</DataArray>
			</CellData>
		</Piece>
	</UnstructuredGrid>
</VTKFile>
