<?xml version="1.0"?>
<VTKFile type="UnstructuredGrid" version="0.1" byte_order="LittleEndian">
	<UnstructuredGrid>
		<Piece NumberOfPoints="8" NumberOfCells="1">
			<Points>
				<DataArray type="Float32" NumberOfComponents="3" format="ascii">
					0.0000000000e+00 					0.0000000000e+00 					0.0000000000e+00 
					5.0000000000e-03 					0.0000000000e+00 					0.0000000000e+00 
					5.0000000000e-03 					5.0000000000e-03 					0.0000000000e+00 
					0.0000000000e+00 					5.0000000000e-03 					0.0000000000e+00 
					0.0000000000e+00 					0.0000000000e+00 					5.0000000000e-03 
					5.0000000000e-03 					0.0000000000e+00 					5.0000000000e-03 
					5.0000000000e-03 					5.0000000000e-03 					5.0000000000e-03 
					0.0000000000e+00 					5.0000000000e-03 					5.0000000000e-03 
				</DataArray>
			</Points>
			<Cells>
				<DataArray type="Int32" Name="connectivity" format="ascii">
					0	1	2	3	4	5	6	7	
				</DataArray>
				<DataArray type="Int32" Name="offsets" format="ascii">
					8
				</DataArray>
				<DataArray type="UInt8" Name="types" format="ascii">
					12
				</DataArray>
			</Cells>
			<PointData>
				<DataArray type="Float32" Name="Displacement" NumberOfComponents="3" ComponentName0="X" ComponentName1="Y" ComponentName2="Z" format="ascii">
					0.0000000000e+00 0.0000000000e+00 0.0000000000e+00 
					-4.2085617303e-05 0.0000000000e+00 0.0000000000e+00 
					-4.2085617303e-05 -4.2085617303e-05 0.0000000000e+00 
					0.0000000000e+00 -4.2085617303e-05 0.0000000000e+00 
					0.0000000000e+00 0.0000000000e+00 3.7750000000e-04 
					-4.2085617303e-05 0.0000000000e+00 3.7750000000e-04 
					-4.2085617303e-05 -4.2085617303e-05 3.7750000000e-04 
					0.0000000000e+00 -4.2085617303e-05 3.7750000000e-04 
				</DataArray>
			</PointData>
			<CellData>
				<DataArray type="Float32" Name="Stress (Cauchy)" NumberOfComponents="9" ComponentName0="XX" ComponentName1="XY" ComponentName2="XZ" ComponentName3="YX" ComponentName4="YY" ComponentName5="YZ" ComponentName6="ZX" ComponentName7="ZY" ComponentName8="ZZ" format="ascii">
					2.2783223005e+04 9.9407845096e-15 -6.3380560565e-33
					9.9407845096e-15 2.2783223005e+04 4.9649314282e-15
					-6.3380560565e-33 4.9649314282e-15 2.3398711300e+04
				</DataArray>
				<DataArray type="Float32" Name="Strain (Logarithmic)" NumberOfComponents="9" ComponentName0="XX" ComponentName1="XY" ComponentName2="XZ" ComponentName3="YX" ComponentName4="YY" ComponentName5="YZ" ComponentName6="ZX" ComponentName7="ZY" ComponentName8="ZZ" format="ascii">
					-8.4527474864e-03 0.0000000000e+00 0.0000000000e+00
					0.0000000000e+00 -8.4527474864e-03 0.0000000000e+00
					0.0000000000e+00 0.0000000000e+00 7.2785669726e-02
				</DataArray>
			</CellData>
		</Piece>
	</UnstructuredGrid>
</VTKFile>
