<?xml version="1.0"?>
<VTKFile type="UnstructuredGrid" version="0.1" byte_order="LittleEndian">
	<UnstructuredGrid>
		<Piece NumberOfPoints="2" NumberOfCells="1">
			<Points>
				<DataArray type="Float32" NumberOfComponents="3" format="ascii">
					0.0025000000 					0.0025000000 					0.0000000000 
					0.0025000000 					0.0025000000 					0.0050000000 
				</DataArray>
			</Points>
			<Cells>
				<DataArray type="Int32" Name="connectivity" format="ascii">
					0	1	
				</DataArray>
				<DataArray type="Int32" Name="offsets" format="ascii">
					2
				</DataArray>
				<DataArray type="UInt8" Name="types" format="ascii">
					3
				</DataArray>
			</Cells>
			<PointData>
				<DataArray type="Float32" Name="Displacement" NumberOfComponents="3" ComponentName0="X" ComponentName1="Y" ComponentName2="Z" format="ascii">
					0.0000000000 0.0000000000 0.0000000000 
					-0.0000028664 0.0000000000 0.0000000000 
				</DataArray>
			</PointData>
			<CellData>
				<DataArray type="Float32" Name="Stress (Cauchy)" NumberOfComponents="9" ComponentName0="XX" ComponentName1="XY" ComponentName2="XZ" ComponentName3="YX" ComponentName4="YY" ComponentName5="YZ" ComponentName6="ZX" ComponentName7="ZY" ComponentName8="ZZ" format="ascii">
					921.5097527126 0.0000000000 -0.0000000000
					0.0000000000 921.5097527126 -0.0000000000
					-0.0000000000 -0.0000000000 935.2759256244
				</DataArray>
				<DataArray type="Float32" Name="Strain (Logarithmic)" NumberOfComponents="9" ComponentName0="XX" ComponentName1="XY" ComponentName2="XZ" ComponentName3="YX" ComponentName4="YY" ComponentName5="YZ" ComponentName6="ZX" ComponentName7="ZY" ComponentName8="ZZ" format="ascii">
					-0.0005734361 0.0000000000 0.0000000000
					0.0000000000 -0.0005734361 0.0000000000
					0.0000000000 0.0000000000 0.0011473352
				</DataArray>
			</CellData>
		</Piece>
	</UnstructuredGrid>
</VTKFile>
