<?xml version="1.0"?>
<VTKFile type="UnstructuredGrid" version="0.1" byte_order="LittleEndian">
	<UnstructuredGrid>
		<Piece NumberOfPoints="2" NumberOfCells="1">
			<Points>
				<DataArray type="Float32" NumberOfComponents="3" format="ascii">
					2.5000000000e-03 					2.5000000000e-03 					0.0000000000e+00 
					2.5000000000e-03 					2.5000000000e-03 					5.0000000000e-03 
				</DataArray>
			</Points>
			<Cells>
				<DataArray type="Int32" Name="connectivity" format="ascii">
					0	1	
				</DataArray>
				<DataArray type="Int32" Name="offsets" format="ascii">
					2
				</DataArray>
				<DataArray type="UInt8" Name="types" format="ascii">
					3
				</DataArray>
			</Cells>
			<PointData>
				<DataArray type="Float32" Name="Displacement" NumberOfComponents="3" ComponentName0="X" ComponentName1="Y" ComponentName2="Z" format="ascii">
					0.0000000000e+00 0.0000000000e+00 0.0000000000e+00 
					-7.4850609519e-04 0.0000000000e+00 0.0000000000e+00 
				</DataArray>
			</PointData>
			<CellData>
				<DataArray type="Float32" Name="Stress (Cauchy)" NumberOfComponents="9" ComponentName0="XX" ComponentName1="XY" ComponentName2="XZ" ComponentName3="YX" ComponentName4="YY" ComponentName5="YZ" ComponentName6="ZX" ComponentName7="ZY" ComponentName8="ZZ" format="ascii">
					-2.5289244301e+04 1.6016132033e-30 1.0523191222e-13
					1.6016132033e-30 -2.5289244301e+04 1.7538652037e-13
					1.0523191222e-13 1.7538652037e-13 -2.1529005023e+04
				</DataArray>
				<DataArray type="Float32" Name="Strain (Logarithmic)" NumberOfComponents="9" ComponentName0="XX" ComponentName1="XY" ComponentName2="XZ" ComponentName3="YX" ComponentName4="YY" ComponentName5="YZ" ComponentName6="ZX" ComponentName7="ZY" ComponentName8="ZZ" format="ascii">
					-1.6216748425e-01 0.0000000000e+00 0.0000000000e+00
					0.0000000000e+00 -1.6216748425e-01 0.0000000000e+00
					0.0000000000e+00 0.0000000000e+00 2.6236426447e-01
				</DataArray>
			</CellData>
		</Piece>
	</UnstructuredGrid>
</VTKFile>
