<?xml version="1.0"?>
<VTKFile type="UnstructuredGrid" version="0.1" byte_order="LittleEndian">
	<UnstructuredGrid>
		<Piece NumberOfPoints="8" NumberOfCells="1">
			<Points>
				<DataArray type="Float32" NumberOfComponents="3" format="ascii">
					0.0000000000e+00 					0.0000000000e+00 					0.0000000000e+00 
					5.0000000000e-03 					0.0000000000e+00 					0.0000000000e+00 
					5.0000000000e-03 					5.0000000000e-03 					0.0000000000e+00 
					0.0000000000e+00 					5.0000000000e-03 					0.0000000000e+00 
					0.0000000000e+00 					0.0000000000e+00 					5.0000000000e-03 
					5.0000000000e-03 					0.0000000000e+00 					5.0000000000e-03 
					5.0000000000e-03 					5.0000000000e-03 					5.0000000000e-03 
					0.0000000000e+00 					5.0000000000e-03 					5.0000000000e-03 
				</DataArray>
			</Points>
			<Cells>
				<DataArray type="Int32" Name="connectivity" format="ascii">
					0	1	2	3	4	5	6	7	
				</DataArray>
				<DataArray type="Int32" Name="offsets" format="ascii">
					8
				</DataArray>
				<DataArray type="UInt8" Name="types" format="ascii">
					12
				</DataArray>
			</Cells>
			<PointData>
				<DataArray type="Float32" Name="Displacement" NumberOfComponents="3" ComponentName0="X" ComponentName1="Y" ComponentName2="Z" format="ascii">
					0.0000000000e+00 0.0000000000e+00 0.0000000000e+00 
					-6.8180094685e-04 0.0000000000e+00 0.0000000000e+00 
					-6.8180094685e-04 -6.8180094685e-04 0.0000000000e+00 
					0.0000000000e+00 -6.8180094685e-04 0.0000000000e+00 
					0.0000000000e+00 0.0000000000e+00 2.0000000000e-03 
					-6.8180094685e-04 0.0000000000e+00 2.0000000000e-03 
					-6.8180094685e-04 -6.8180094685e-04 2.0000000000e-03 
					0.0000000000e+00 -6.8180094685e-04 2.0000000000e-03 
				</DataArray>
			</PointData>
			<CellData>
				<DataArray type="Float32" Name="Stress (Cauchy)" NumberOfComponents="9" ComponentName0="XX" ComponentName1="XY" ComponentName2="XZ" ComponentName3="YX" ComponentName4="YY" ComponentName5="YZ" ComponentName6="ZX" ComponentName7="ZY" ComponentName8="ZZ" format="ascii">
					1.6390447325e+04 -3.2386704783e-14 3.1176720052e-14
					-3.2386704783e-14 1.6390447325e+04 1.8706032031e-13
					3.1176720052e-14 1.8706032031e-13 2.0286959156e+04
				</DataArray>
				<DataArray type="Float32" Name="Strain (Logarithmic)" NumberOfComponents="9" ComponentName0="XX" ComponentName1="XY" ComponentName2="XZ" ComponentName3="YX" ComponentName4="YY" ComponentName5="YZ" ComponentName6="ZX" ComponentName7="ZY" ComponentName8="ZZ" format="ascii">
					-1.4659948294e-01 0.0000000000e+00 0.0000000000e+00
					0.0000000000e+00 -1.4659948294e-01 0.0000000000e+00
					0.0000000000e+00 0.0000000000e+00 3.3647223662e-01
				</DataArray>
			</CellData>
		</Piece>
	</UnstructuredGrid>
</VTKFile>
