# vtk DataFile Version 3. 0.
eem_matrix
ASCII
DATASET UNSTRUCTURED_GRID 
POINTS 8 double
  0   0   0 
0.005   0   0 
0.005 0.005   0 
  0 0.005   0 
  0   0 0.005 
0.005   0 0.005 
0.005 0.005 0.005 
  0 0.005 0.005 
CELLS 1 9 
8   0   1   2   3   4   5   6   7 
CELL_TYPES 1
12

POINT_DATA 8
VECTORS displacement double
0 0 0 
0 0 0 
0 0 0 
0 0 0 
0 0 0 
0 0 0 
0 0 0 
0 0 0 
CELL_DATA 1
TENSORS Stress double
0 0 0
0 0 0
0 0 0

TENSORS Strain double
0 0 0
0 0 0
0 0 0

