# vtk DataFile Version 3. 0.
eem_truss
ASCII
DATASET UNSTRUCTURED_GRID 
POINTS 2 double
0.0025 0.0025   0 
0.0025 0.0025 0.005 
CELLS 1 3 
2   0   1 
CELL_TYPES 1
3

CELL_DATA 1
TENSORS Stress double
0 0 0
0 0 0
0 0 0

TENSORS Strain double
0 0 0
0 0 0
0 0 0

