<?xml version="1.0"?>
<VTKFile type="UnstructuredGrid" version="0.1" byte_order="LittleEndian">
	<UnstructuredGrid>
		<Piece NumberOfPoints="8" NumberOfCells="1">
			<Points>
				<DataArray type="Float32" NumberOfComponents="3" format="ascii">
					0.0000000000 					0.0000000000 					0.0000000000 
					0.0050000000 					0.0000000000 					0.0000000000 
					0.0050000000 					0.0050000000 					0.0000000000 
					0.0000000000 					0.0050000000 					0.0000000000 
					0.0000000000 					0.0000000000 					0.0050000000 
					0.0050000000 					0.0000000000 					0.0050000000 
					0.0050000000 					0.0050000000 					0.0050000000 
					0.0000000000 					0.0050000000 					0.0050000000 
				</DataArray>
			</Points>
			<Cells>
				<DataArray type="Int32" Name="connectivity" format="ascii">
					0	1	2	3	4	5	6	7	
				</DataArray>
				<DataArray type="Int32" Name="offsets" format="ascii">
					8
				</DataArray>
				<DataArray type="UInt8" Name="types" format="ascii">
					12
				</DataArray>
			</Cells>
			<PointData>
				<DataArray type="Float32" Name="Displacement" NumberOfComponents="3" ComponentName0="X" ComponentName1="Y" ComponentName2="Z" format="ascii">
					0.0000000000 0.0000000000 0.0000000000 
					-0.0000419273 0.0000000000 0.0000000000 
					-0.0000419273 -0.0000419273 0.0000000000 
					0.0000000000 -0.0000419273 0.0000000000 
					0.0000000000 0.0000000000 0.0000849268 
					-0.0000419273 0.0000000000 0.0000849268 
					-0.0000419273 -0.0000419273 0.0000849268 
					0.0000000000 -0.0000419273 0.0000849268 
				</DataArray>
			</PointData>
			<CellData>
				<DataArray type="Float32" Name="Stress (Cauchy)" NumberOfComponents="9" ComponentName0="XX" ComponentName1="XY" ComponentName2="XZ" ComponentName3="YX" ComponentName4="YY" ComponentName5="YZ" ComponentName6="ZX" ComponentName7="ZY" ComponentName8="ZZ" format="ascii">
					2129.7013913356 0.0000000000 -0.0000000000
					0.0000000000 2129.7013913356 0.0000000000
					-0.0000000000 0.0000000000 2331.8382076679
				</DataArray>
				<DataArray type="Float32" Name="Strain (Logarithmic)" NumberOfComponents="9" ComponentName0="XX" ComponentName1="XY" ComponentName2="XZ" ComponentName3="YX" ComponentName4="YY" ComponentName5="YZ" ComponentName6="ZX" ComponentName7="ZY" ComponentName8="ZZ" format="ascii">
					-0.0084208160 0.0000000000 0.0000000000
					0.0000000000 -0.0084208160 0.0000000000
					0.0000000000 0.0000000000 0.0168427305
				</DataArray>
			</CellData>
		</Piece>
	</UnstructuredGrid>
</VTKFile>
